c Cycle with shortcut problem
c Nodes 1-6 form a cycle, with shortcut from 1 to 4
c Supply at node 1, demand at node 4
c Path around cycle: 1->2->3->4 (cost 3+3+3 = 9)
c Path via shortcut: 1->4 (cost 5)
c Optimal: Use shortcut (cost 5*10 = 50)
p min 6 7
n 1 10
n 4 -10
a 1 2 0 10 3
a 2 3 0 10 3
a 3 4 0 10 3
a 4 5 0 10 3
a 5 6 0 10 3
a 6 1 0 10 3
a 1 4 0 10 5